proyfinal/src/viki/013/andrea/andrea-localstore/experimentInOfficeAgust.take6/worker_4/590bc06c-c11b-4257-8ff8-a1b17fb901be.als.cnf.out
Reading from standard input... Use '--help' for help.
============================[ Problem Statistics ]=============================
|                                                                             |
|  Number of variables:         87638                                         |
|  Number of clauses:          161767                                         |
|  Parse time:                   0.03 s                                       |
|                                                                             |
============================[ Search Statistics ]==============================
| Conflicts |          ORIGINAL         |          LEARNT          | Progress |
|           |    Vars  Clauses Literals |    Limit  Clauses Lit/Cl |          |
===============================================================================
|       100 |   65210   115450   287919 |    42331      100      9 | 25.592 % |
|       250 |   65210   115450   287919 |    46564      250     29 | 25.592 % |
|       475 |   65210   115450   287919 |    51221      475     46 | 25.592 % |
|       812 |   65209   115406   287829 |    56343      811     89 | 25.593 % |
|      1318 |   65209   115406   287829 |    61977     1317     84 | 25.593 % |
|      2077 |   65209   115406   287829 |    68175     2076     82 | 25.593 % |
|      3216 |   59010   115401   287817 |    74993     3213    101 | 32.666 % |
|      4924 |   58875    95379   238444 |    82492     4863    117 | 32.820 % |
|      7486 |   56366    87094   217554 |    90741     5868    107 | 35.683 % |
|     11330 |   56353    87040   217428 |    99815     9711     89 | 35.698 % |
|     17096 |   56177    86221   215567 |   109797    14723     89 | 35.899 % |
===============================================================================
restarts              : 74
conflicts             : 20930          (8186 /sec)
decisions             : 81260          (0.00 % random) (31782 /sec)
propagations          : 26453418       (10346348 /sec)
conflict literals     : 1787646        (39.51 % deleted)
Memory used           : 48.38 MB
CPU time              : 2.55679 s

INDETERMINATE
